qe/outputs/qe/cbrdelay_l0_discretize/T=5,eliminate=[I_0,I_1,I_2,I_3,I_4,lhs=L_4],pl=0.smt2
; benchmark generated from python API
(set-info :status unknown)
(declare-fun S_3 () Real)
(declare-fun S_4 () Real)
(declare-fun C () Real)
(declare-fun L0 () Real)
(declare-fun B () Real)
(declare-fun S_0 () Real)
(declare-fun L_2 () Real)
(declare-fun A_3 () Real)
(declare-fun S_2 () Real)
(declare-fun S_1 () Real)
(declare-fun A_4 () Real)
(declare-fun L_4 () Real)
(declare-fun L_0 () Real)
(declare-fun A_2 () Real)
(declare-fun A_1 () Real)
(declare-fun L_1 () Real)
(declare-fun L_3 () Real)
(declare-fun A_0 () Real)
(assert
 (let (($x37 (>= L0 0.0)))
 (let (($x532 (>= C 5.0)))
 (let (($x742 (>= B 5.0)))
 (let (($x8224 (<= (+ A_2 (* (- 1.0) L_0) L_4 (* (- 1.0) A_4) (* 2.0 C)) 0.0)))
 (let (($x3582 (= L_4 L_0)))
 (let (($x2300 (not (= L_0 L_2))))
 (let (($x8330 (<= (+ A_1 (* (- 1.0) L_0) L_4 (* (- 1.0) A_4) (* 3.0 C)) 0.0)))
 (let ((?x331 (* (- 1.0) C)))
 (let ((?x251 (* (- 1.0) L_4)))
 (let ((?x524 (* (- 1.0) B)))
 (let ((?x7725 (+ ?x524 ?x251 A_4 ?x331)))
 (let (($x7984 (<= (+ A_3 (* (- 1.0) L_0)) ?x7725)))
 (let (($x794 (not (<= L_1 L_0))))
 (let (($x84 (= L_4 L_3)))
 (let (($x12642 (or (= (+ A_4 ?x251 ?x524) (+ A_3 (* (- 1.0) L_0) C)) (not $x7984))))
 (let ((?x310 (* (- 1.0) L_1)))
 (let ((?x836 (+ A_2 ?x310)))
 (let (($x2436 (>= S_3 ?x836)))
 (let (($x7557 (<= A_4 (+ A_3 C))))
 (let (($x2036 (not (= L_3 L_4))))
 (let ((?x790 (+ A_4 ?x251 ?x524)))
 (let (($x7706 (= ?x790 (+ A_3 ?x310 C))))
 (let (($x7531 (<= A_2 (+ A_1 ?x524 C))))
 (let (($x7536 (not $x7531)))
 (let (($x2706 (= L_4 L_1)))
 (let (($x12734 (or $x2706 (not (<= (+ A_3 (* (- 1.0) A_2) ?x331) 0.0)) $x7536 $x7706)))
 (let (($x797 (not (<= L_2 L_1))))
 (let (($x54 (= L_1 L_0)))
 (let (($x13247 (or $x54 $x797 $x2036 $x7557 (<= (+ A_4 (* (- 1.0) A_1) (* (- 3.0) C)) 0.0))))
 (let (($x1589 (not (= L_1 L_3))))
 (let (($x13172 (or $x1589 $x2706 $x7531 $x7706 (not (<= A_3 (+ A_1 ?x524 (* 2.0 C)))))))
 (let ((?x491 (* (- 1.0) A_2)))
 (let ((?x6786 (+ A_3 ?x491 ?x331)))
 (let (($x6781 (<= ?x6786 0.0)))
 (let (($x1194 (not (= L_2 L_3))))
 (let (($x12687 (or $x1194 $x6781 (<= (+ A_3 (* (- 1.0) A_1) (* (- 2.0) C)) 0.0))))
 (let (($x7700 (<= A_3 (+ A_1 ?x524 (* 2.0 C)))))
 (let (($x9754 (or $x54 $x84 $x797 $x7531 $x7700 (= (+ A_4 ?x251) (+ A_1 ?x310 (* 3.0 C))))))
 (let (($x1587 (not (= L_1 L_2))))
 (let (($x1733 (= L_3 L_1)))
 (let (($x12269 (or $x1733 $x7536 (= (+ A_3 (* (- 1.0) L_3) ?x524) (+ A_2 ?x310 C)))))
 (let (($x74 (= L_3 L_2)))
 (let (($x7807 (or $x74 $x7531 (= (+ A_3 (* (- 1.0) L_3)) (+ A_1 ?x310 (* 2.0 C))))))
 (let (($x64 (= L_2 L_1)))
 (let (($x7629 (or $x64 $x794 (<= (+ A_1 (* (- 1.0) L_0) L_2 ?x491 C) 0.0))))
 (let (($x1757 (= L_4 L_2)))
 (let (($x8619 (or $x1757 (= ?x790 (+ A_3 (* (- 1.0) L_2) C)) (not (<= A_3 (+ A_2 ?x524 C))))))
 (let (($x454 (<= A_3 (+ A_2 ?x524 C))))
 (let (($x8156 (or $x64 $x84 $x454 (= (+ A_4 ?x251) (+ A_2 (* (- 1.0) L_2) (* 2.0 C))))))
 (let (($x802 (not (<= L_4 L_3))))
 (let (($x800 (not (<= L_3 L_2))))
 (let (($x337 (or $x64 $x74 (= (+ A_3 (* (- 1.0) L_3)) (+ A_2 (* (- 1.0) L_2) C)))))
 (let (($x36 (>= L_0 L0)))
 (let (($x111 (>= S_1 S_0)))
 (let (($x114 (>= S_2 S_1)))
 (let (($x117 (>= S_3 S_2)))
 (let (($x122 (>= A_1 A_0)))
 (let (($x123 (>= A_2 A_1)))
 (let (($x124 (>= A_3 A_2)))
 (and (<= (+ A_3 (* (- 1.0) L_3)) S_4) (not (<= (+ A_0 (* (- 1.0) L_0)) S_3)) $x124 $x123 $x122 $x117 $x114 $x111 $x36 (or $x84 (<= S_4 ?x790)) (or $x74 (<= S_3 (+ A_3 (* (- 1.0) L_3) ?x524))) (>= S_3 (+ A_2 (* (- 1.0) L_2) ?x524)) (>= S_2 (+ A_1 ?x310 ?x524)) (>= S_0 (+ ?x524 ?x310 A_1 (* (- 2.0) C))) (>= S_1 (+ ?x524 ?x310 A_1 ?x331)) (or $x54 $x64 (= (+ A_2 (* (- 1.0) L_2)) (+ A_1 ?x310 C))) $x337 (or $x74 $x84 (= (+ A_4 ?x251) (+ A_3 (* (- 1.0) L_3) C))) (or $x64 (<= S_2 (+ A_2 (* (- 1.0) L_2) ?x524))) (or $x54 (<= S_1 (+ A_1 ?x310 ?x524))) (or $x74 $x800) (or $x54 (<= S_0 (+ ?x524 ?x310 A_1 ?x331))) (or $x64 (<= S_3 (+ A_2 (* (- 1.0) L_2) ?x524 C))) (or $x64 (<= S_4 (+ A_2 (* (- 1.0) L_2) ?x524 (* 2.0 C)))) (or $x64 $x797) (or $x64 $x800 $x802 (<= (+ A_4 ?x491 (* (- 2.0) C)) 0.0)) (or $x84 $x802) (or $x64 $x800 $x6781) (or $x54 $x794) (or $x54 (<= S_2 (+ A_1 ?x310 ?x524 C))) (or $x7531 (>= S_3 (+ A_1 ?x310 ?x524 C))) $x8156 $x8619 (or $x74 $x2036 $x7557) (or (not (= L_2 L_4)) (<= (+ A_4 (* (- 1.0) A_3) ?x331) B)) (or $x64 (<= S_1 (+ ?x524 (* (- 1.0) L_2) A_2 ?x331))) (or $x64 (<= S_0 (+ ?x524 (* (- 1.0) L_2) A_2 (* (- 2.0) C)))) (>= S_2 (+ ?x524 (* (- 1.0) L_2) A_2 ?x331)) (>= S_0 (+ ?x524 (* (- 1.0) L_2) A_2 (* (- 3.0) C))) (>= S_1 (+ ?x524 (* (- 1.0) L_2) A_2 (* (- 2.0) C))) $x7629 $x7807 (<= S_2 ?x836) $x12269 (or $x2436 $x7536) (<= S_4 (+ A_4 (* (- 1.0) L_3))) (or $x74 (<= S_4 (+ A_3 (* (- 1.0) L_3) ?x524 C))) (<= S_3 (+ A_3 (* (- 1.0) L_2))) (or $x54 $x1587 (<= (+ A_2 (* (- 1.0) A_1) ?x331) 0.0)) (or $x54 (<= S_3 (+ A_1 ?x310 ?x524 (* 2.0 C)))) $x9754 (<= S_3 (+ A_2 ?x310 C)) (or $x84 $x6781 $x7536 (= ?x790 (+ A_2 ?x310 (* 2.0 C)))) $x12687 $x13172 (or $x54 (<= S_4 (+ A_1 ?x310 ?x524 (* 3.0 C)))) $x13247 $x12734 (or $x1589 (<= ?x6786 B)) (<= S_4 (+ A_2 ?x310 (* 2.0 C))) (or $x2036 $x7557 (<= (+ A_4 ?x491 (* (- 2.0) C)) B)) (<= (+ (* (- 3.0) C) (* (- 1.0) S_0) S_2) 0.0) (<= (+ C S_0 (* (- 1.0) S_2)) 0.0) (or $x2436 (<= (+ (* 2.0 C) S_0 (* (- 1.0) S_3)) 0.0)) (or $x2436 (<= (+ C S_1 (* (- 1.0) S_3)) 0.0)) (<= (+ (* (- 2.0) C) S_1 (* (- 1.0) S_0)) 0.0) (>= S_3 (+ ?x524 ?x251 A_4 (* (- 2.0) C))) (<= (+ (* (- 2.0) C) (* (- 1.0) S_1) S_2) 0.0) (>= S_2 (+ ?x524 ?x251 A_4 (* (- 3.0) C))) (or $x84 $x794 (<= S_1 (+ ?x524 ?x251 A_4 (* (- 3.0) C))) $x7984) (or $x84 $x794 (<= S_2 (+ ?x524 ?x251 A_4 (* (- 2.0) C))) $x7984) (or $x84 $x794 (<= S_0 (+ ?x524 ?x251 A_4 (* (- 4.0) C))) $x7984) (or $x84 (<= S_3 ?x7725)) (>= S_1 (+ ?x524 ?x251 A_4 (* (- 4.0) C))) $x12642 (>= S_0 (+ ?x524 ?x251 A_4 (* (- 5.0) C))) (or $x84 $x794 $x7984 $x8330) (or $x2300 $x3582 $x8224) (<= (+ (* (- 5.0) C) (* (- 1.0) S_0) S_4) 0.0) (<= (+ (* (- 4.0) C) (* (- 1.0) S_1) S_4) 0.0) (<= (+ (* (- 3.0) C) S_4 (* (- 1.0) S_2)) 0.0) (<= (+ (* (- 3.0) C) (* (- 1.0) S_1) S_3) 0.0) (<= (+ (* (- 2.0) C) (* (- 1.0) S_2) S_3) 0.0) (<= S_4 (+ A_3 (* (- 1.0) L_2) C)) (<= (+ (* (- 4.0) C) (* (- 1.0) S_0) S_3) 0.0) $x742 $x532 $x37 (<= (+ (* (- 2.0) C) S_4 (* (- 1.0) S_3)) 0.0))))))))))))))))))))))))))))))))))))))))))))))))))))))))))))))
(check-sat)
